% demand
num_movements = 54;
loading_factor = [1300, 850, 850, 1100, 1400, 1950, 800, 1000, 850, 1550, 1750, 1050, 1850, 1200, 1200, 1000, 1250, 1450, 800, 1200, 1550, 850, 1600, 900, 1100, 1700, 2000, 1150, 2000, 1200, 1150, 1100, 1350, 1550, 1350, 900, 1900, 1200, 1400, 900, 1650, 1300, 1100, 1450, 1250, 1100, 1700, 2000, 1800, 1100, 1900, 1550, 1100, 1200];
pickup_time = [0, 0, 0, 0, 0, 0, 0, 0, 0, 1, 1, 1, 1, 1, 2, 2, 2, 3, 3, 3, 5, 5, 5, 5, 5, 5, 7, 7, 7, 7, 7, 8, 8, 9, 9, 9, 9, 9, 9, 10, 10, 10, 10, 10, 10, 10, 10, 12, 12, 12, 12, 12, 12, 12];
delivery_time = [5, 1, 2, 1, 1, 1, 1, 5, 1, 3, 2, 2, 5, 5, 7, 5, 3, 7, 5, 5, 7, 7, 7, 7, 6, 6, 8, 8, 8, 8, 8, 10, 9, 10, 10, 10, 10, 10, 10, 11, 11, 11, 11, 11, 11, 11, 11, 13, 13, 13, 13, 13, 13, 13];

% transporter definition
total_capacity = 11000;
num_decks = 4;
capacity = [3000, 3000, 1000, 4000];

% ways out of decks
num_ways_out = 2;
paths_out = array3d(decks, ways_out, decks, [
% ways out of deck d1
2, 4, 0, 0, 3, 4, 0, 0, 

% ways out of deck d2
4, 0, 0, 0, 0, 0, 0, 0,	

% ways out of deck d3
4, 0, 0, 0, 0, 0, 0, 0,	

% ways out of deck d4
0, 0, 0, 0,	0, 0, 0, 0,	

]);

